Welcome to the CBC MILP Solver
Version: Devel (unstable)
Build Date: Feb  6 2022
command line - -import /home/danilo/psp-janniele/J30/j3049/j3049_10.lp -timeM elapsed -seconds 10800 -solve -quit (default strategy 1)
seconds was changed from 1e+08 to 10800
Continuous objective value is 0.057914 - 0.083082 seconds
Cgl0002I 3 variables fixed
Cgl0003I 20 fixed, 0 tightened bounds, 13 strengthened rows, 2 substitutions
Cgl0003I 14 fixed, 0 tightened bounds, 11 strengthened rows, 0 substitutions
Cgl0003I 0 fixed, 0 tightened bounds, 12 strengthened rows, 0 substitutions
Cgl0003I 0 fixed, 0 tightened bounds, 16 strengthened rows, 0 substitutions
Cgl0003I 0 fixed, 0 tightened bounds, 14 strengthened rows, 0 substitutions
Cgl0003I 0 fixed, 0 tightened bounds, 11 strengthened rows, 0 substitutions
Cgl0003I 0 fixed, 0 tightened bounds, 10 strengthened rows, 0 substitutions
Cgl0003I 0 fixed, 0 tightened bounds, 12 strengthened rows, 0 substitutions
Cgl0003I 0 fixed, 0 tightened bounds, 9 strengthened rows, 0 substitutions
Cgl0003I 0 fixed, 0 tightened bounds, 9 strengthened rows, 0 substitutions
Cgl0003I 0 fixed, 0 tightened bounds, 5 strengthened rows, 0 substitutions
Cgl0004I processed model has 306 rows, 735 columns (735 integer (734 of which binary)) and 8093 elements
Coin3009W Conflict graph built in 0.050 seconds, density: 1.952%
Cgl0015I Clique Strengthening extended 0 cliques, 0 were dominated
Cbc0045I Cutoff increment increased from 0.0001 to 0.9999
Cbc0045I 1 integer variables out of 735 objects (735 integer) have cost of 1 - high priority
Cbc0045I branch on satisfied Y create fake objective Y random cost Y
Cbc0038I Initial state - 142 integers unsatisfied sum - 28.5642
Cbc0038I Pass   1: suminf.   19.73459 (105) obj. 1.51129 iterations 185
Cbc0038I Pass   2: suminf.   16.93730 (87) obj. 2.85107 iterations 109
Cbc0038I Pass   3: suminf.   13.64350 (75) obj. 5 iterations 67
Cbc0038I Pass   4: suminf.   13.62522 (74) obj. 5 iterations 6
Cbc0038I Pass   5: suminf.   14.97574 (66) obj. 5 iterations 98
Cbc0038I Pass   6: suminf.   11.63345 (53) obj. 5 iterations 71
Cbc0038I Pass   7: suminf.   10.92228 (58) obj. 5 iterations 44
Cbc0038I Pass   8: suminf.   10.21842 (57) obj. 5 iterations 34
Cbc0038I Pass   9: suminf.   10.45537 (56) obj. 5 iterations 62
Cbc0038I Pass  10: suminf.    9.96239 (61) obj. 5 iterations 53
Cbc0038I Pass  11: suminf.    9.93759 (61) obj. 5 iterations 11
Cbc0038I Pass  12: suminf.    9.93798 (61) obj. 5 iterations 6
Cbc0038I Pass  13: suminf.   10.35349 (61) obj. 5 iterations 48
Cbc0038I Pass  14: suminf.    9.95219 (59) obj. 5 iterations 31
Cbc0038I Pass  15: suminf.   20.33130 (85) obj. 5 iterations 186
Cbc0038I Pass  16: suminf.   10.61552 (53) obj. 5 iterations 166
Cbc0038I Pass  17: suminf.    9.22910 (52) obj. 5 iterations 44
Cbc0038I Pass  18: suminf.    9.75849 (41) obj. 5 iterations 134
Cbc0038I Pass  19: suminf.    8.19238 (41) obj. 5 iterations 61
Cbc0038I Pass  20: suminf.    7.94746 (40) obj. 5 iterations 4
Cbc0038I Pass  21: suminf.    7.84548 (44) obj. 5 iterations 98
Cbc0038I Pass  22: suminf.    6.61559 (30) obj. 5 iterations 74
Cbc0038I Pass  23: suminf.    6.56309 (29) obj. 5 iterations 12
Cbc0038I Pass  24: suminf.    7.74196 (37) obj. 5 iterations 88
Cbc0038I Pass  25: suminf.    7.29853 (40) obj. 5 iterations 69
Cbc0038I Pass  26: suminf.    7.10214 (41) obj. 5 iterations 36
Cbc0038I Pass  27: suminf.    8.86667 (37) obj. 5 iterations 81
Cbc0038I Pass  28: suminf.    6.88695 (35) obj. 5 iterations 89
Cbc0038I Pass  29: suminf.    6.55437 (37) obj. 5 iterations 85
Cbc0038I Pass  30: suminf.    6.25488 (34) obj. 5 iterations 37
Cbc0038I Pass  31: suminf.    6.05849 (35) obj. 5 iterations 18
Cbc0038I Pass  32: suminf.    8.13315 (37) obj. 5 iterations 93
Cbc0038I Pass  33: suminf.    6.91159 (35) obj. 5 iterations 56
Cbc0038I Pass  34: suminf.    6.83222 (34) obj. 5 iterations 12
Cbc0038I Pass  35: suminf.    7.17800 (39) obj. 5 iterations 90
Cbc0038I Pass  36: suminf.    6.61559 (30) obj. 5 iterations 45
Cbc0038I Pass  37: suminf.    6.56309 (29) obj. 5 iterations 12
Cbc0038I Pass  38: suminf.    8.19111 (36) obj. 5 iterations 91
Cbc0038I Pass  39: suminf.    7.13626 (39) obj. 5 iterations 75
Cbc0038I Pass  40: suminf.    7.10214 (41) obj. 5 iterations 11
Cbc0038I Pass  41: suminf.    7.02877 (39) obj. 5 iterations 58
Cbc0038I Pass  42: suminf.    6.11124 (34) obj. 5 iterations 49
Cbc0038I Pass  43: suminf.    6.05849 (35) obj. 5 iterations 16
Cbc0038I Pass  44: suminf.    8.61712 (36) obj. 5 iterations 120
Cbc0038I Pass  45: suminf.    6.98968 (34) obj. 5 iterations 70
Cbc0038I Pass  46: suminf.    6.88695 (35) obj. 5 iterations 22
Cbc0038I Pass  47: suminf.    6.72967 (42) obj. 5 iterations 75
Cbc0038I Pass  48: suminf.    6.56309 (29) obj. 5 iterations 28
Cbc0038I Pass  49: suminf.    7.74196 (37) obj. 5 iterations 69
Cbc0038I Pass  50: suminf.    7.29853 (40) obj. 5 iterations 64
Cbc0038I Pass  51: suminf.    7.10214 (41) obj. 5 iterations 29
Cbc0038I Pass  52: suminf.    6.74943 (37) obj. 5 iterations 88
Cbc0038I Pass  53: suminf.    6.11124 (34) obj. 5 iterations 30
Cbc0038I Pass  54: suminf.    6.05849 (35) obj. 5 iterations 11
Cbc0038I Pass  55: suminf.    8.61712 (36) obj. 5 iterations 105
Cbc0038I Pass  56: suminf.    6.98968 (34) obj. 5 iterations 71
Cbc0038I Pass  57: suminf.    6.88695 (35) obj. 5 iterations 22
Cbc0038I Pass  58: suminf.    6.38056 (36) obj. 5 iterations 82
Cbc0038I Pass  59: suminf.    6.07765 (32) obj. 5 iterations 53
Cbc0038I Pass  60: suminf.    5.78966 (33) obj. 5 iterations 18
Cbc0038I Pass  61: suminf.    6.72466 (40) obj. 5 iterations 76
Cbc0038I Pass  62: suminf.    6.24074 (37) obj. 5 iterations 95
Cbc0038I Pass  63: suminf.    6.00699 (36) obj. 5 iterations 18
Cbc0038I Pass  64: suminf.    6.04976 (39) obj. 5 iterations 106
Cbc0038I Pass  65: suminf.    5.42243 (34) obj. 5 iterations 36
Cbc0038I Pass  66: suminf.    5.40367 (33) obj. 5 iterations 10
Cbc0038I Pass  67: suminf.    8.05059 (38) obj. 5 iterations 109
Cbc0038I Pass  68: suminf.    6.81950 (41) obj. 5 iterations 77
Cbc0038I Pass  69: suminf.    6.81950 (41) obj. 5 iterations 3
Cbc0038I Pass  70: suminf.    9.80901 (51) obj. 5 iterations 125
Cbc0038I Pass  71: suminf.    7.68333 (33) obj. 5 iterations 71
Cbc0038I Pass  72: suminf.    7.50794 (30) obj. 5 iterations 21
Cbc0038I Pass  73: suminf.    6.53826 (36) obj. 5 iterations 55
Cbc0038I Pass  74: suminf.    6.19741 (33) obj. 5 iterations 18
Cbc0038I Pass  75: suminf.    7.94444 (30) obj. 5 iterations 132
Cbc0038I Pass  76: suminf.    6.48611 (32) obj. 5 iterations 74
Cbc0038I Pass  77: suminf.    6.23611 (31) obj. 5 iterations 24
Cbc0038I Pass  78: suminf.    6.23611 (31) obj. 5 iterations 11
Cbc0038I Pass  79: suminf.   22.38522 (86) obj. 5 iterations 200
Cbc0038I Pass  80: suminf.   11.29018 (50) obj. 5 iterations 172
Cbc0038I Pass  81: suminf.    8.46376 (50) obj. 5 iterations 43
Cbc0038I Pass  82: suminf.    7.62070 (38) obj. 5 iterations 38
Cbc0038I Pass  83: suminf.    7.27713 (41) obj. 5 iterations 38
Cbc0038I Pass  84: suminf.    8.69189 (48) obj. 5 iterations 150
Cbc0038I Pass  85: suminf.    7.15659 (34) obj. 5 iterations 85
Cbc0038I Pass  86: suminf.    6.29267 (41) obj. 5 iterations 66
Cbc0038I Pass  87: suminf.    7.66900 (40) obj. 5 iterations 77
Cbc0038I Pass  88: suminf.    6.45643 (35) obj. 5 iterations 97
Cbc0038I Pass  89: suminf.    6.81522 (39) obj. 5 iterations 89
Cbc0038I Pass  90: suminf.    6.26474 (38) obj. 5 iterations 37
Cbc0038I Pass  91: suminf.    6.26474 (38) obj. 5 iterations 17
Cbc0038I Pass  92: suminf.    6.26474 (38) obj. 5 iterations 9
Cbc0038I Pass  93: suminf.   18.35160 (78) obj. 4.93232 iterations 183
Cbc0038I Pass  94: suminf.    9.15937 (49) obj. 5 iterations 134
Cbc0038I Pass  95: suminf.    7.85260 (41) obj. 5 iterations 60
Cbc0038I Pass  96: suminf.    7.20795 (46) obj. 5 iterations 24
Cbc0038I Pass  97: suminf.    8.36562 (40) obj. 5 iterations 84
Cbc0038I Pass  98: suminf.    7.37728 (43) obj. 5 iterations 65
Cbc0038I Pass  99: suminf.    8.97396 (44) obj. 5 iterations 80
Cbc0038I Pass 100: suminf.   16.24142 (62) obj. 5 iterations 130
Cbc0038I No solution found this major pass
Cbc0038I Before mini branch and bound, 339 integers at bound fixed and 0 continuous
Cbc0038I Full problem 306 rows 735 columns, reduced to 254 rows 374 columns - too large
Cbc0038I Mini branch and bound did not improve solution (2.51 seconds)
Cbc0038I After 2.51 seconds - Feasibility pump exiting - took 0.83 seconds
Cbc0031I 102 added rows had average density of 36.323529
Cbc0013I At root node, 102 cuts changed objective from 0.11843274 to 1.9999167 in 11 passes
Cbc0014I Cut generator 0 (Probing) - 252 row cuts average 7.7 elements, 2 column cuts (82 active)  in 0.517 seconds - new frequency is 1
Cbc0014I Cut generator 1 (Gomory) - 172 row cuts average 725.5 elements, 0 column cuts (0 active)  in 0.874 seconds - new frequency is 1
Cbc0014I Cut generator 2 (Knapsack) - 60 row cuts average 16.1 elements, 0 column cuts (0 active)  in 0.099 seconds - new frequency is 1
Cbc0014I Cut generator 3 (Clique) - 124 row cuts average 17.4 elements, 0 column cuts (0 active)  in 0.042 seconds - new frequency is 1
Cbc0014I Cut generator 4 (OddWheel) - 0 row cuts average 0.0 elements, 0 column cuts (0 active)  in 0.192 seconds - new frequency is -100
Cbc0014I Cut generator 5 (MixedIntegerRounding2) - 152 row cuts average 41.8 elements, 0 column cuts (0 active)  in 0.043 seconds - new frequency is 1
Cbc0014I Cut generator 6 (FlowCover) - 0 row cuts average 0.0 elements, 0 column cuts (0 active)  in 0.002 seconds - new frequency is -100
Cbc0014I Cut generator 7 (TwoMirCuts) - 163 row cuts average 37.1 elements, 0 column cuts (0 active)  in 0.105 seconds - new frequency is 1
Cbc0014I Cut generator 8 (ZeroHalf) - 157 row cuts average 49.0 elements, 0 column cuts (0 active)  in 0.163 seconds - new frequency is 1
Cbc0010I After 0 nodes, 1 on tree, 1e+50 best solution, best possible 1.9999167 (6.42 seconds)
Cbc0010I After 2 nodes, 3 on tree, 1e+50 best solution, best possible 1.9999167 (7.37 seconds)
Cbc0010I After 4 nodes, 4 on tree, 1e+50 best solution, best possible 1.9999167 (8.10 seconds)
Cbc0010I After 6 nodes, 3 on tree, 1e+50 best solution, best possible 1.9999167 (9.00 seconds)
Cbc0010I After 8 nodes, 4 on tree, 1e+50 best solution, best possible 1.9999167 (9.80 seconds)
Cbc0010I After 12 nodes, 3 on tree, 1e+50 best solution, best possible 1.9999167 (10.92 seconds)
Cbc0010I After 14 nodes, 5 on tree, 1e+50 best solution, best possible 1.9999167 (11.97 seconds)
Cbc0010I After 16 nodes, 7 on tree, 1e+50 best solution, best possible 1.9999167 (12.78 seconds)
Cbc0010I After 20 nodes, 7 on tree, 1e+50 best solution, best possible 1.9999167 (13.59 seconds)
Cbc0010I After 23 nodes, 9 on tree, 1e+50 best solution, best possible 1.9999167 (14.47 seconds)
Cbc0010I After 28 nodes, 9 on tree, 1e+50 best solution, best possible 1.9999167 (15.28 seconds)
Cbc0010I After 33 nodes, 9 on tree, 1e+50 best solution, best possible 1.9999167 (16.10 seconds)
Cbc0010I After 38 nodes, 8 on tree, 1e+50 best solution, best possible 1.9999167 (17.12 seconds)
Cbc0010I After 42 nodes, 8 on tree, 1e+50 best solution, best possible 1.9999167 (17.94 seconds)
Cbc0010I After 47 nodes, 9 on tree, 1e+50 best solution, best possible 1.9999167 (18.79 seconds)
Cbc0010I After 52 nodes, 8 on tree, 1e+50 best solution, best possible 1.9999167 (19.53 seconds)
Cbc0010I After 56 nodes, 9 on tree, 1e+50 best solution, best possible 1.9999167 (20.31 seconds)
Cbc0010I After 60 nodes, 11 on tree, 1e+50 best solution, best possible 1.9999167 (21.10 seconds)
Cbc0010I After 66 nodes, 10 on tree, 1e+50 best solution, best possible 1.9999167 (21.89 seconds)
Cbc0010I After 72 nodes, 12 on tree, 1e+50 best solution, best possible 1.9999167 (22.72 seconds)
Cbc0010I After 80 nodes, 13 on tree, 1e+50 best solution, best possible 1.9999167 (23.43 seconds)
Cbc0010I After 86 nodes, 13 on tree, 1e+50 best solution, best possible 1.9999167 (24.30 seconds)
Cbc0010I After 94 nodes, 10 on tree, 1e+50 best solution, best possible 1.9999167 (25.13 seconds)
Cbc0010I After 102 nodes, 9 on tree, 1e+50 best solution, best possible 1.9999167 (25.97 seconds)
Cbc0010I After 107 nodes, 10 on tree, 1e+50 best solution, best possible 1.9999167 (26.77 seconds)
Cbc0010I After 112 nodes, 12 on tree, 1e+50 best solution, best possible 1.9999167 (27.58 seconds)
Cbc0010I After 117 nodes, 11 on tree, 1e+50 best solution, best possible 1.9999167 (28.29 seconds)
Cbc0010I After 126 nodes, 11 on tree, 1e+50 best solution, best possible 1.9999167 (29.11 seconds)
Cbc0010I After 137 nodes, 13 on tree, 1e+50 best solution, best possible 1.9999167 (29.86 seconds)
Cbc0010I After 149 nodes, 9 on tree, 1e+50 best solution, best possible 1.9999167 (30.57 seconds)
Cbc0010I After 156 nodes, 10 on tree, 1e+50 best solution, best possible 1.9999167 (31.46 seconds)
Cbc0010I After 161 nodes, 10 on tree, 1e+50 best solution, best possible 1.9999167 (32.25 seconds)
Cbc0010I After 167 nodes, 6 on tree, 1e+50 best solution, best possible 1.9999167 (32.95 seconds)
Cbc0010I After 173 nodes, 8 on tree, 1e+50 best solution, best possible 1.9999167 (33.71 seconds)
Cbc0010I After 179 nodes, 6 on tree, 1e+50 best solution, best possible 1.9999167 (34.58 seconds)
Cbc0010I After 186 nodes, 3 on tree, 1e+50 best solution, best possible 1.9999167 (35.80 seconds)
Cbc0010I After 189 nodes, 6 on tree, 1e+50 best solution, best possible 1.9999167 (36.56 seconds)
Cbc0010I After 195 nodes, 7 on tree, 1e+50 best solution, best possible 1.9999167 (37.45 seconds)
Cbc0010I After 203 nodes, 6 on tree, 1e+50 best solution, best possible 1.9999167 (38.41 seconds)
Cbc0010I After 208 nodes, 6 on tree, 1e+50 best solution, best possible 1.9999167 (39.24 seconds)
Cbc0010I After 211 nodes, 5 on tree, 1e+50 best solution, best possible 1.9999167 (39.96 seconds)
Cbc0010I After 213 nodes, 4 on tree, 1e+50 best solution, best possible 1.9999167 (40.72 seconds)
Cbc0010I After 218 nodes, 3 on tree, 1e+50 best solution, best possible 1.9999167 (41.93 seconds)
Cbc0010I After 220 nodes, 5 on tree, 1e+50 best solution, best possible 1.9999167 (43.04 seconds)
Cbc0010I After 224 nodes, 5 on tree, 1e+50 best solution, best possible 1.9999167 (44.07 seconds)
Cbc0010I After 228 nodes, 7 on tree, 1e+50 best solution, best possible 1.9999167 (45.25 seconds)
Cbc0010I After 231 nodes, 9 on tree, 1e+50 best solution, best possible 1.9999167 (46.03 seconds)
Cbc0010I After 234 nodes, 10 on tree, 1e+50 best solution, best possible 1.9999167 (47.07 seconds)
Cbc0010I After 238 nodes, 12 on tree, 1e+50 best solution, best possible 1.9999167 (47.87 seconds)
Cbc0010I After 241 nodes, 11 on tree, 1e+50 best solution, best possible 1.9999167 (48.59 seconds)
Cbc0010I After 245 nodes, 9 on tree, 1e+50 best solution, best possible 1.9999167 (49.37 seconds)
Cbc0010I After 250 nodes, 6 on tree, 1e+50 best solution, best possible 1.9999167 (50.12 seconds)
Cbc0010I After 253 nodes, 6 on tree, 1e+50 best solution, best possible 1.9999167 (50.93 seconds)
Cbc0010I After 257 nodes, 6 on tree, 1e+50 best solution, best possible 1.9999167 (51.92 seconds)
Cbc0010I After 259 nodes, 6 on tree, 1e+50 best solution, best possible 1.9999167 (52.70 seconds)
Cbc0010I After 263 nodes, 6 on tree, 1e+50 best solution, best possible 1.9999167 (53.82 seconds)
Cbc0010I After 267 nodes, 3 on tree, 1e+50 best solution, best possible 1.9999167 (54.66 seconds)
Cbc0010I After 268 nodes, 3 on tree, 1e+50 best solution, best possible 1.9999167 (55.39 seconds)
Cbc0010I After 269 nodes, 4 on tree, 1e+50 best solution, best possible 1.9999167 (56.24 seconds)
Cbc0010I After 271 nodes, 6 on tree, 1e+50 best solution, best possible 1.9999167 (57.15 seconds)
Cbc0010I After 273 nodes, 6 on tree, 1e+50 best solution, best possible 1.9999167 (57.89 seconds)
Cbc0010I After 276 nodes, 6 on tree, 1e+50 best solution, best possible 1.9999167 (59.08 seconds)
Cbc0010I After 278 nodes, 8 on tree, 1e+50 best solution, best possible 1.9999167 (59.97 seconds)
Cbc0010I After 281 nodes, 10 on tree, 1e+50 best solution, best possible 1.9999167 (60.73 seconds)
Cbc0010I After 285 nodes, 7 on tree, 1e+50 best solution, best possible 1.9999167 (61.45 seconds)
Cbc0010I After 287 nodes, 8 on tree, 1e+50 best solution, best possible 1.9999167 (62.27 seconds)
Cbc0010I After 291 nodes, 8 on tree, 1e+50 best solution, best possible 1.9999167 (63.13 seconds)
Cbc0010I After 297 nodes, 7 on tree, 1e+50 best solution, best possible 1.9999167 (63.87 seconds)
Cbc0010I After 300 nodes, 9 on tree, 1e+50 best solution, best possible 1.9999167 (64.87 seconds)
Cbc0010I After 305 nodes, 8 on tree, 1e+50 best solution, best possible 1.9999167 (65.71 seconds)
Cbc0010I After 309 nodes, 9 on tree, 1e+50 best solution, best possible 1.9999167 (66.43 seconds)
Cbc0010I After 314 nodes, 6 on tree, 1e+50 best solution, best possible 1.9999167 (67.15 seconds)
Cbc0010I After 318 nodes, 8 on tree, 1e+50 best solution, best possible 1.9999167 (68.25 seconds)
Cbc0010I After 322 nodes, 8 on tree, 1e+50 best solution, best possible 1.9999167 (69.17 seconds)
Cbc0010I After 325 nodes, 9 on tree, 1e+50 best solution, best possible 1.9999167 (70.21 seconds)
Cbc0010I After 329 nodes, 9 on tree, 1e+50 best solution, best possible 1.9999167 (70.97 seconds)
Cbc0010I After 333 nodes, 10 on tree, 1e+50 best solution, best possible 1.9999167 (71.85 seconds)
Cbc0010I After 338 nodes, 11 on tree, 1e+50 best solution, best possible 1.9999167 (72.67 seconds)
Cbc0010I After 342 nodes, 13 on tree, 1e+50 best solution, best possible 1.9999167 (73.39 seconds)
Cbc0010I After 347 nodes, 12 on tree, 1e+50 best solution, best possible 1.9999167 (74.20 seconds)
Cbc0010I After 354 nodes, 11 on tree, 1e+50 best solution, best possible 1.9999167 (75.00 seconds)
Cbc0010I After 357 nodes, 11 on tree, 1e+50 best solution, best possible 1.9999167 (75.85 seconds)
Cbc0010I After 363 nodes, 13 on tree, 1e+50 best solution, best possible 1.9999167 (76.58 seconds)
Cbc0010I After 370 nodes, 11 on tree, 1e+50 best solution, best possible 1.9999167 (77.67 seconds)
Cbc0010I After 377 nodes, 11 on tree, 1e+50 best solution, best possible 1.9999167 (78.38 seconds)
Cbc0010I After 383 nodes, 9 on tree, 1e+50 best solution, best possible 1.9999167 (79.12 seconds)
Cbc0010I After 390 nodes, 9 on tree, 1e+50 best solution, best possible 1.9999167 (80.15 seconds)
Cbc0010I After 394 nodes, 8 on tree, 1e+50 best solution, best possible 1.9999167 (80.90 seconds)
Cbc0010I After 400 nodes, 10 on tree, 1e+50 best solution, best possible 1.9999167 (81.63 seconds)
Cbc0010I After 405 nodes, 10 on tree, 1e+50 best solution, best possible 1.9999167 (82.43 seconds)
Cbc0010I After 411 nodes, 9 on tree, 1e+50 best solution, best possible 1.9999167 (83.34 seconds)
Cbc0010I After 418 nodes, 9 on tree, 1e+50 best solution, best possible 1.9999167 (84.05 seconds)
Cbc0010I After 427 nodes, 9 on tree, 1e+50 best solution, best possible 1.9999167 (84.86 seconds)
Cbc0010I After 435 nodes, 8 on tree, 1e+50 best solution, best possible 1.9999167 (85.66 seconds)
Cbc0010I After 441 nodes, 8 on tree, 1e+50 best solution, best possible 1.9999167 (86.44 seconds)
Cbc0010I After 449 nodes, 8 on tree, 1e+50 best solution, best possible 1.9999167 (87.27 seconds)
Cbc0010I After 457 nodes, 7 on tree, 1e+50 best solution, best possible 1.9999167 (88.01 seconds)
Cbc0010I After 464 nodes, 6 on tree, 1e+50 best solution, best possible 1.9999167 (88.87 seconds)
Cbc0010I After 474 nodes, 6 on tree, 1e+50 best solution, best possible 1.9999167 (89.74 seconds)
Cbc0010I After 483 nodes, 7 on tree, 1e+50 best solution, best possible 1.9999167 (90.52 seconds)
Cbc0010I After 491 nodes, 8 on tree, 1e+50 best solution, best possible 1.9999167 (91.25 seconds)
Cbc0010I After 498 nodes, 7 on tree, 1e+50 best solution, best possible 1.9999167 (92.13 seconds)
Cbc0010I After 504 nodes, 10 on tree, 1e+50 best solution, best possible 1.9999167 (92.94 seconds)
Cbc0010I After 509 nodes, 10 on tree, 1e+50 best solution, best possible 1.9999167 (93.70 seconds)
Cbc0010I After 513 nodes, 12 on tree, 1e+50 best solution, best possible 1.9999167 (94.64 seconds)
Cbc0010I After 519 nodes, 9 on tree, 1e+50 best solution, best possible 1.9999167 (95.39 seconds)
Cbc0010I After 522 nodes, 9 on tree, 1e+50 best solution, best possible 1.9999167 (96.10 seconds)
Cbc0010I After 528 nodes, 11 on tree, 1e+50 best solution, best possible 1.9999167 (96.80 seconds)
Cbc0010I After 537 nodes, 9 on tree, 1e+50 best solution, best possible 1.9999167 (97.63 seconds)
Cbc0010I After 543 nodes, 10 on tree, 1e+50 best solution, best possible 1.9999167 (98.35 seconds)
Cbc0010I After 549 nodes, 9 on tree, 1e+50 best solution, best possible 1.9999167 (99.06 seconds)
Cbc0010I After 556 nodes, 11 on tree, 1e+50 best solution, best possible 1.9999167 (99.86 seconds)
Cbc0010I After 563 nodes, 11 on tree, 1e+50 best solution, best possible 1.9999167 (100.58 seconds)
Cbc0010I After 571 nodes, 7 on tree, 1e+50 best solution, best possible 1.9999167 (101.40 seconds)
Cbc0010I After 575 nodes, 8 on tree, 1e+50 best solution, best possible 1.9999167 (102.10 seconds)
Cbc0010I After 580 nodes, 9 on tree, 1e+50 best solution, best possible 1.9999167 (102.81 seconds)
Cbc0010I After 587 nodes, 12 on tree, 1e+50 best solution, best possible 1.9999167 (103.57 seconds)
Cbc0010I After 592 nodes, 11 on tree, 1e+50 best solution, best possible 1.9999167 (104.32 seconds)
Cbc0010I After 596 nodes, 13 on tree, 1e+50 best solution, best possible 1.9999167 (105.03 seconds)
Cbc0010I After 604 nodes, 11 on tree, 1e+50 best solution, best possible 1.9999167 (105.81 seconds)
Cbc0010I After 611 nodes, 9 on tree, 1e+50 best solution, best possible 1.9999167 (106.65 seconds)
Cbc0010I After 617 nodes, 10 on tree, 1e+50 best solution, best possible 1.9999167 (107.45 seconds)
Cbc0010I After 624 nodes, 13 on tree, 1e+50 best solution, best possible 1.9999167 (108.22 seconds)
Cbc0010I After 627 nodes, 12 on tree, 1e+50 best solution, best possible 1.9999167 (108.94 seconds)
Cbc0010I After 631 nodes, 14 on tree, 1e+50 best solution, best possible 1.9999167 (109.68 seconds)
Cbc0010I After 641 nodes, 18 on tree, 1e+50 best solution, best possible 1.9999167 (110.40 seconds)
Cbc0010I After 649 nodes, 19 on tree, 1e+50 best solution, best possible 1.9999167 (111.11 seconds)
Cbc0010I After 657 nodes, 22 on tree, 1e+50 best solution, best possible 1.9999167 (111.83 seconds)
Cbc0010I After 664 nodes, 20 on tree, 1e+50 best solution, best possible 1.9999167 (112.54 seconds)
Cbc0010I After 671 nodes, 18 on tree, 1e+50 best solution, best possible 1.9999167 (113.26 seconds)
Cbc0010I After 679 nodes, 18 on tree, 1e+50 best solution, best possible 1.9999167 (114.07 seconds)
Cbc0010I After 687 nodes, 17 on tree, 1e+50 best solution, best possible 1.9999167 (114.83 seconds)
Cbc0010I After 696 nodes, 10 on tree, 1e+50 best solution, best possible 1.9999167 (115.58 seconds)
Cbc0010I After 703 nodes, 8 on tree, 1e+50 best solution, best possible 1.9999167 (116.46 seconds)
Cbc0010I After 709 nodes, 6 on tree, 1e+50 best solution, best possible 1.9999167 (117.20 seconds)
Cbc0010I After 714 nodes, 9 on tree, 1e+50 best solution, best possible 1.9999167 (117.93 seconds)
Cbc0010I After 719 nodes, 11 on tree, 1e+50 best solution, best possible 1.9999167 (118.71 seconds)
Cbc0010I After 725 nodes, 11 on tree, 1e+50 best solution, best possible 1.9999167 (119.51 seconds)
Cbc0010I After 736 nodes, 11 on tree, 1e+50 best solution, best possible 1.9999167 (120.22 seconds)
Cbc0010I After 746 nodes, 9 on tree, 1e+50 best solution, best possible 1.9999167 (121.10 seconds)
Cbc0010I After 754 nodes, 12 on tree, 1e+50 best solution, best possible 1.9999167 (121.80 seconds)
Cbc0010I After 761 nodes, 13 on tree, 1e+50 best solution, best possible 1.9999167 (122.59 seconds)
Cbc0010I After 770 nodes, 11 on tree, 1e+50 best solution, best possible 1.9999167 (123.43 seconds)
Cbc0010I After 776 nodes, 12 on tree, 1e+50 best solution, best possible 1.9999167 (124.13 seconds)
Cbc0010I After 785 nodes, 14 on tree, 1e+50 best solution, best possible 1.9999167 (124.92 seconds)
Cbc0010I After 797 nodes, 12 on tree, 1e+50 best solution, best possible 1.9999167 (125.71 seconds)
Cbc0010I After 806 nodes, 12 on tree, 1e+50 best solution, best possible 1.9999167 (126.42 seconds)
Cbc0010I After 813 nodes, 13 on tree, 1e+50 best solution, best possible 1.9999167 (127.24 seconds)
Cbc0010I After 820 nodes, 13 on tree, 1e+50 best solution, best possible 1.9999167 (127.97 seconds)
Cbc0010I After 830 nodes, 16 on tree, 1e+50 best solution, best possible 1.9999167 (128.79 seconds)
Cbc0010I After 844 nodes, 10 on tree, 1e+50 best solution, best possible 1.9999167 (129.51 seconds)
Cbc0010I After 851 nodes, 12 on tree, 1e+50 best solution, best possible 1.9999167 (130.25 seconds)
Cbc0010I After 861 nodes, 14 on tree, 1e+50 best solution, best possible 1.9999167 (131.03 seconds)
Cbc0010I After 873 nodes, 17 on tree, 1e+50 best solution, best possible 1.9999167 (131.74 seconds)
Cbc0010I After 883 nodes, 16 on tree, 1e+50 best solution, best possible 1.9999167 (132.49 seconds)
Cbc0010I After 893 nodes, 13 on tree, 1e+50 best solution, best possible 1.9999167 (133.22 seconds)
Cbc0010I After 902 nodes, 15 on tree, 1e+50 best solution, best possible 1.9999167 (134.07 seconds)
Cbc0010I After 907 nodes, 15 on tree, 1e+50 best solution, best possible 1.9999167 (134.78 seconds)
Cbc0010I After 917 nodes, 12 on tree, 1e+50 best solution, best possible 1.9999167 (135.50 seconds)
Cbc0010I After 923 nodes, 15 on tree, 1e+50 best solution, best possible 1.9999167 (136.38 seconds)
Cbc0010I After 931 nodes, 14 on tree, 1e+50 best solution, best possible 1.9999167 (137.11 seconds)
Cbc0010I After 941 nodes, 14 on tree, 1e+50 best solution, best possible 1.9999167 (137.82 seconds)
Cbc0010I After 947 nodes, 13 on tree, 1e+50 best solution, best possible 1.9999167 (138.55 seconds)
Cbc0010I After 955 nodes, 12 on tree, 1e+50 best solution, best possible 1.9999167 (139.28 seconds)
Cbc0010I After 964 nodes, 16 on tree, 1e+50 best solution, best possible 1.9999167 (140.01 seconds)
Cbc0010I After 973 nodes, 11 on tree, 1e+50 best solution, best possible 1.9999167 (140.78 seconds)
Cbc0010I After 979 nodes, 11 on tree, 1e+50 best solution, best possible 1.9999167 (141.50 seconds)
Cbc0010I After 985 nodes, 9 on tree, 1e+50 best solution, best possible 1.9999167 (142.22 seconds)
Cbc0010I After 994 nodes, 9 on tree, 1e+50 best solution, best possible 1.9999167 (143.01 seconds)
Cbc0010I After 999 nodes, 12 on tree, 1e+50 best solution, best possible 1.9999167 (143.83 seconds)
Cbc0010I After 1006 nodes, 10 on tree, 1e+50 best solution, best possible 4 (144.55 seconds)
Cbc0010I After 1014 nodes, 8 on tree, 1e+50 best solution, best possible 4 (145.31 seconds)
Cbc0010I After 1019 nodes, 12 on tree, 1e+50 best solution, best possible 4 (146.08 seconds)
Cbc0010I After 1029 nodes, 5 on tree, 1e+50 best solution, best possible 4 (146.79 seconds)
Cbc0010I After 1034 nodes, 7 on tree, 1e+50 best solution, best possible 4 (147.65 seconds)
Cbc0010I After 1039 nodes, 12 on tree, 1e+50 best solution, best possible 4 (148.41 seconds)
Cbc0010I After 1050 nodes, 18 on tree, 1e+50 best solution, best possible 4 (149.23 seconds)
Cbc0010I After 1059 nodes, 14 on tree, 1e+50 best solution, best possible 4 (149.97 seconds)
Cbc0010I After 1068 nodes, 14 on tree, 1e+50 best solution, best possible 4 (150.69 seconds)
Cbc0010I After 1076 nodes, 10 on tree, 1e+50 best solution, best possible 4 (151.43 seconds)
Cbc0010I After 1081 nodes, 8 on tree, 1e+50 best solution, best possible 4 (152.16 seconds)
Cbc0010I After 1089 nodes, 8 on tree, 1e+50 best solution, best possible 4 (153.00 seconds)
Cbc0010I After 1096 nodes, 15 on tree, 1e+50 best solution, best possible 4 (153.82 seconds)
Cbc0010I After 1105 nodes, 24 on tree, 1e+50 best solution, best possible 4 (154.61 seconds)
Cbc0010I After 1112 nodes, 25 on tree, 1e+50 best solution, best possible 4 (155.39 seconds)
Cbc0010I After 1122 nodes, 35 on tree, 1e+50 best solution, best possible 4 (156.09 seconds)
Cbc0010I After 1142 nodes, 28 on tree, 1e+50 best solution, best possible 4 (156.80 seconds)
Cbc0010I After 1153 nodes, 23 on tree, 1e+50 best solution, best possible 4 (157.52 seconds)
Cbc0010I After 1159 nodes, 24 on tree, 1e+50 best solution, best possible 4 (158.23 seconds)
Cbc0010I After 1166 nodes, 31 on tree, 1e+50 best solution, best possible 4 (158.98 seconds)
Cbc0010I After 1178 nodes, 35 on tree, 1e+50 best solution, best possible 4 (159.69 seconds)
Cbc0010I After 1190 nodes, 31 on tree, 1e+50 best solution, best possible 4 (160.40 seconds)
Cbc0010I After 1205 nodes, 33 on tree, 1e+50 best solution, best possible 4 (161.12 seconds)
Cbc0010I After 1219 nodes, 22 on tree, 1e+50 best solution, best possible 4 (161.96 seconds)
Cbc0010I After 1225 nodes, 21 on tree, 1e+50 best solution, best possible 4 (162.72 seconds)
Cbc0010I After 1234 nodes, 17 on tree, 1e+50 best solution, best possible 4 (163.51 seconds)
Cbc0010I After 1241 nodes, 16 on tree, 1e+50 best solution, best possible 4 (164.26 seconds)
Cbc0010I After 1249 nodes, 12 on tree, 1e+50 best solution, best possible 4 (165.12 seconds)
Cbc0010I After 1258 nodes, 11 on tree, 1e+50 best solution, best possible 4 (165.85 seconds)
Cbc0010I After 1268 nodes, 9 on tree, 1e+50 best solution, best possible 4 (166.63 seconds)
Cbc0010I After 1273 nodes, 14 on tree, 1e+50 best solution, best possible 4 (167.37 seconds)
Cbc0010I After 1281 nodes, 18 on tree, 1e+50 best solution, best possible 4 (168.14 seconds)
Cbc0010I After 1295 nodes, 8 on tree, 1e+50 best solution, best possible 4 (168.88 seconds)
Cbc0010I After 1299 nodes, 12 on tree, 1e+50 best solution, best possible 4 (169.68 seconds)
Cbc0010I After 1306 nodes, 10 on tree, 1e+50 best solution, best possible 4 (170.51 seconds)
Cbc0010I After 1313 nodes, 8 on tree, 1e+50 best solution, best possible 4 (171.37 seconds)
Cbc0010I After 1320 nodes, 9 on tree, 1e+50 best solution, best possible 4 (172.25 seconds)
Cbc0010I After 1325 nodes, 12 on tree, 1e+50 best solution, best possible 4 (173.01 seconds)
Cbc0010I After 1335 nodes, 9 on tree, 1e+50 best solution, best possible 4 (173.81 seconds)
Cbc0010I After 1344 nodes, 3 on tree, 1e+50 best solution, best possible 4 (174.60 seconds)
Cbc0010I After 1347 nodes, 6 on tree, 1e+50 best solution, best possible 4 (175.38 seconds)
Cbc0010I After 1352 nodes, 9 on tree, 1e+50 best solution, best possible 4 (176.21 seconds)
Cbc0010I After 1359 nodes, 7 on tree, 1e+50 best solution, best possible 4 (176.94 seconds)
Cbc0010I After 1366 nodes, 5 on tree, 1e+50 best solution, best possible 4 (177.91 seconds)
Cbc0010I After 1369 nodes, 8 on tree, 1e+50 best solution, best possible 4 (178.62 seconds)
Cbc0010I After 1373 nodes, 12 on tree, 1e+50 best solution, best possible 4 (179.38 seconds)
Cbc0010I After 1377 nodes, 16 on tree, 1e+50 best solution, best possible 4 (180.12 seconds)
Cbc0010I After 1384 nodes, 15 on tree, 1e+50 best solution, best possible 4 (180.83 seconds)
Cbc0010I After 1397 nodes, 4 on tree, 1e+50 best solution, best possible 4 (181.73 seconds)
Cbc0010I After 1402 nodes, 3 on tree, 1e+50 best solution, best possible 4 (182.45 seconds)
Cbc0010I After 1405 nodes, 6 on tree, 1e+50 best solution, best possible 4 (183.19 seconds)
Cbc0010I After 1412 nodes, 4 on tree, 1e+50 best solution, best possible 4 (183.98 seconds)
Cbc0010I After 1417 nodes, 4 on tree, 1e+50 best solution, best possible 4 (184.75 seconds)
Cbc0010I After 1424 nodes, 7 on tree, 1e+50 best solution, best possible 4 (185.56 seconds)
Cbc0010I After 1433 nodes, 2 on tree, 1e+50 best solution, best possible 5 (186.67 seconds)
Cbc0010I After 1436 nodes, 5 on tree, 1e+50 best solution, best possible 5 (187.39 seconds)
Cbc0010I After 1440 nodes, 9 on tree, 1e+50 best solution, best possible 5 (188.21 seconds)
Cbc0010I After 1445 nodes, 8 on tree, 1e+50 best solution, best possible 5 (189.04 seconds)
Cbc0010I After 1450 nodes, 13 on tree, 1e+50 best solution, best possible 5 (189.79 seconds)
Cbc0010I After 1458 nodes, 21 on tree, 1e+50 best solution, best possible 5 (190.49 seconds)
Cbc0010I After 1466 nodes, 29 on tree, 1e+50 best solution, best possible 5 (191.41 seconds)
Cbc0010I After 1479 nodes, 32 on tree, 1e+50 best solution, best possible 5 (192.18 seconds)
Cbc0010I After 1494 nodes, 40 on tree, 1e+50 best solution, best possible 5 (192.89 seconds)
Cbc0010I After 1507 nodes, 38 on tree, 1e+50 best solution, best possible 5 (193.69 seconds)
Cbc0010I After 1518 nodes, 39 on tree, 1e+50 best solution, best possible 5 (194.49 seconds)
Cbc0010I After 1527 nodes, 37 on tree, 1e+50 best solution, best possible 5 (195.35 seconds)
Cbc0010I After 1540 nodes, 41 on tree, 1e+50 best solution, best possible 5 (196.09 seconds)
Cbc0010I After 1557 nodes, 38 on tree, 1e+50 best solution, best possible 5 (196.89 seconds)
Cbc0010I After 1580 nodes, 43 on tree, 1e+50 best solution, best possible 5 (197.62 seconds)
Cbc0010I After 1593 nodes, 46 on tree, 1e+50 best solution, best possible 5 (198.32 seconds)
Cbc0010I After 1615 nodes, 40 on tree, 1e+50 best solution, best possible 5 (199.08 seconds)
Cbc0010I After 1626 nodes, 50 on tree, 1e+50 best solution, best possible 5 (199.81 seconds)
Cbc0010I After 1641 nodes, 52 on tree, 1e+50 best solution, best possible 5 (200.52 seconds)
Cbc0010I After 1661 nodes, 51 on tree, 1e+50 best solution, best possible 5 (201.23 seconds)
Cbc0010I After 1678 nodes, 43 on tree, 1e+50 best solution, best possible 5 (201.93 seconds)
Cbc0010I After 1693 nodes, 40 on tree, 1e+50 best solution, best possible 5 (202.64 seconds)
Cbc0010I After 1707 nodes, 46 on tree, 1e+50 best solution, best possible 5 (203.38 seconds)
Cbc0010I After 1730 nodes, 41 on tree, 1e+50 best solution, best possible 5 (204.12 seconds)
Cbc0010I After 1751 nodes, 38 on tree, 1e+50 best solution, best possible 5 (204.85 seconds)
Cbc0004I Integer solution of 5 found after 452267 iterations and 1757 nodes (205.25 seconds)
Cbc0001I Search completed - best objective 5, took 452267 iterations and 1757 nodes (205.25 seconds)
Cbc0032I Strong branching done 10742 times (446766 iterations), fathomed 27 nodes and fixed 298 variables
Cbc0035I Maximum depth 67, 0 variables fixed on reduced cost
Cuts at root node changed objective from 0.118433 to 1.99992
Probing was tried 1218 times and created 8640 cuts of which 80 were active after adding rounds of cuts (7.5822 seconds)
Gomory was tried 1186 times and created 186 cuts of which 0 were active after adding rounds of cuts (4.77694 seconds)
Knapsack was tried 1186 times and created 1824 cuts of which 0 were active after adding rounds of cuts (8.50413 seconds)
Clique was tried 1186 times and created 7303 cuts of which 0 were active after adding rounds of cuts (2.16304 seconds)
OddWheel was tried 11 times and created 0 cuts of which 0 were active after adding rounds of cuts (0.191688 seconds)
MixedIntegerRounding2 was tried 1186 times and created 7875 cuts of which 0 were active after adding rounds of cuts (3.3212 seconds)
FlowCover was tried 11 times and created 0 cuts of which 0 were active after adding rounds of cuts (0.002221 seconds)
TwoMirCuts was tried 1186 times and created 6141 cuts of which 0 were active after adding rounds of cuts (1.75349 seconds)
ZeroHalf was tried 1186 times and created 9623 cuts of which 0 were active after adding rounds of cuts (10.4391 seconds)

Result - Optimal solution found
Objective value:                5
Enumerated nodes:               1757
Total iterations:               452267
Time (CPU seconds):             204.159
Time (Wallclock seconds):       205.288
Total time (CPU seconds):       204.257   (Wallclock seconds):       205.362
